(set-logic QF_NRA)
(set-info :source |Benchmarks generated from hycomp (https://es-static.fbk.eu/tools/hycomp/). BMC instances of non-linear hybrid automata taken from: Alessandro Cimatti, Sergio Mover, Stefano Tonetta, A quantifier-free SMT encoding of non-linear hybrid automata, FMCAD 2012 and Alessandro Cimatti, Sergio Mover, Stefano Tonetta, Quantier-free encoding of invariants for Hybrid Systems, Formal Methods in System Design. This instance solves a BMC problem of depth 1 and uses the quantifier free encoding encoding. Contacts: Sergio Mover (mover@fbk.eu), Stefano Tonetta (tonettas@fbk.eu), Alessandro Cimatti (cimatti@fbk.eu).|)
(set-info :smt-lib-version 2.0)
(set-info :category "industrial")
(set-info :status unsat)
;; MathSAT API call trace
;; generated on Mon Mar 19 10:36:36 2012
(declare-fun b.y__AT1 () Real)
(declare-fun b.EVENT.0__AT0 () Bool)
(declare-fun b.speed_y__AT0 () Real)
(declare-fun b.event_is_timed__AT0 () Bool)
(declare-fun b.counter.3__AT0 () Bool)
(declare-fun b.speed_x__AT1 () Real)
(declare-fun b.time__AT1 () Real)
(declare-fun b.x__AT1 () Real)
(declare-fun b.event_is_timed__AT1 () Bool)
(declare-fun b.counter.0__AT1 () Bool)
(declare-fun b.EVENT.1__AT0 () Bool)
(declare-fun b.speed_loss__AT0 () Real)
(declare-fun b.counter.1__AT1 () Bool)
(declare-fun b.speed_x__AT0 () Real)
(declare-fun b.counter.2__AT1 () Bool)
(declare-fun b.time__AT0 () Real)
(declare-fun b.counter.2__AT0 () Bool)
(declare-fun b.counter.3__AT1 () Bool)
(declare-fun b.bool_atom__AT1 () Bool)
(declare-fun b.x__AT0 () Real)
(declare-fun b.speed_y__AT1 () Real)
(declare-fun b.delta__AT1 () Real)
(declare-fun b.bool_atom__AT0 () Bool)
(declare-fun b.y__AT0 () Real)
(declare-fun b.EVENT.1__AT1 () Bool)
(declare-fun b.EVENT.0__AT1 () Bool)
(declare-fun b.counter.0__AT0 () Bool)
(declare-fun b.delta__AT0 () Real)
(declare-fun b.counter.1__AT0 () Bool)
(assert (let ((.def_454 (* (- (/ 49 10)) b.speed_y__AT1)))
(let ((.def_485 (* 3.0 .def_454)))
(let ((.def_553 (* (- 1.0) .def_485)))
(let ((.def_574 (* 2.0 .def_553)))
(let ((.def_583 (* (- 1.0) .def_574)))
(let ((.def_584 (* b.delta__AT1 .def_583)))
(let ((.def_585 (* (- 50.0) .def_584)))
(let ((.def_449 (* b.delta__AT1 b.delta__AT1)))
(let ((.def_512 (* (- 7203.0) .def_449)))
(let ((.def_586 (+ .def_512 .def_585)))
(let ((.def_329 (* b.speed_y__AT1 b.speed_y__AT1)))
(let ((.def_514 (* (- 50.0) .def_329)))
(let ((.def_587 (+ .def_514 .def_586)))
(let ((.def_516 (* 490.0 b.y__AT1)))
(let ((.def_588 (+ .def_516 .def_587)))
(let ((.def_589 (<= .def_588 0.0 )))
(let ((.def_522 (* (- 5.0) .def_329)))
(let ((.def_523 (* 49.0 b.y__AT1)))
(let ((.def_525 (+ .def_523 .def_522)))
(let ((.def_526 (<= .def_525 0.0 )))
(let ((.def_590 (and .def_526 .def_589)))
(let ((.def_529 (* (- 49.0) b.delta__AT1)))
(let ((.def_530 (* 5.0 b.speed_y__AT1)))
(let ((.def_532 (+ .def_530 .def_529)))
(let ((.def_536 (<= 0.0 .def_532)))
(let ((.def_535 (<= 0.0 b.speed_y__AT1)))
(let ((.def_537 (and .def_535 .def_536)))
(let ((.def_533 (<= .def_532 0.0 )))
(let ((.def_528 (<= b.speed_y__AT1 0.0 )))
(let ((.def_534 (and .def_528 .def_533)))
(let ((.def_538 (or .def_534 .def_537)))
(let ((.def_591 (and .def_538 .def_590)))
(let ((.def_575 (* b.delta__AT1 .def_574)))
(let ((.def_576 (* 50.0 .def_575)))
(let ((.def_577 (+ .def_512 .def_576)))
(let ((.def_578 (+ .def_514 .def_577)))
(let ((.def_579 (+ .def_516 .def_578)))
(let ((.def_580 (<= 0.0 .def_579)))
(let ((.def_547 (<= 0.0 .def_525)))
(let ((.def_581 (and .def_547 .def_580)))
(let ((.def_582 (and .def_538 .def_581)))
(let ((.def_592 (or .def_582 .def_591)))
(let ((.def_461 (* (- (/ 49 10)) b.y__AT1)))
(let ((.def_492 (* 2.0 .def_461)))
(let ((.def_561 (* (- 1.0) .def_492)))
(let ((.def_562 (* b.delta__AT1 .def_561)))
(let ((.def_563 (* (- 50.0) .def_562)))
(let ((.def_488 (* 2.0 .def_329)))
(let ((.def_557 (* (- 1.0) .def_488)))
(let ((.def_558 (* b.delta__AT1 .def_557)))
(let ((.def_559 (* (- 25.0) .def_558)))
(let ((.def_567 (+ .def_559 .def_563)))
(let ((.def_554 (* .def_449 .def_553)))
(let ((.def_555 (* (- 50.0) .def_554)))
(let ((.def_568 (+ .def_555 .def_567)))
(let ((.def_465 (* b.y__AT1 b.speed_y__AT1)))
(let ((.def_498 (* 50.0 .def_465)))
(let ((.def_569 (+ .def_498 .def_568)))
(let ((.def_450 (* b.delta__AT1 .def_449)))
(let ((.def_496 (* 2401.0 .def_450)))
(let ((.def_570 (+ .def_496 .def_569)))
(let ((.def_500 (* 25.0 b.speed_x__AT1)))
(let ((.def_571 (+ .def_500 .def_570)))
(let ((.def_572 (<= .def_571 0.0 )))
(let ((.def_482 (* 2.0 .def_465)))
(let ((.def_483 (+ b.speed_x__AT1 .def_482)))
(let ((.def_552 (<= .def_483 0.0 )))
(let ((.def_573 (and .def_552 .def_572)))
(let ((.def_593 (and .def_573 .def_592)))
(let ((.def_509 (* 2.0 .def_485)))
(let ((.def_540 (* (- 1.0) .def_509)))
(let ((.def_541 (* b.delta__AT1 .def_540)))
(let ((.def_542 (* 50.0 .def_541)))
(let ((.def_543 (+ .def_512 .def_542)))
(let ((.def_544 (+ .def_514 .def_543)))
(let ((.def_545 (+ .def_516 .def_544)))
(let ((.def_546 (<= 0.0 .def_545)))
(let ((.def_548 (and .def_546 .def_547)))
(let ((.def_549 (and .def_538 .def_548)))
(let ((.def_510 (* b.delta__AT1 .def_509)))
(let ((.def_511 (* (- 50.0) .def_510)))
(let ((.def_518 (+ .def_512 .def_511)))
(let ((.def_519 (+ .def_514 .def_518)))
(let ((.def_520 (+ .def_516 .def_519)))
(let ((.def_521 (<= .def_520 0.0 )))
(let ((.def_527 (and .def_521 .def_526)))
(let ((.def_539 (and .def_527 .def_538)))
(let ((.def_550 (or .def_539 .def_549)))
(let ((.def_493 (* b.delta__AT1 .def_492)))
(let ((.def_494 (* 50.0 .def_493)))
(let ((.def_489 (* b.delta__AT1 .def_488)))
(let ((.def_490 (* 25.0 .def_489)))
(let ((.def_502 (+ .def_490 .def_494)))
(let ((.def_486 (* .def_449 .def_485)))
(let ((.def_487 (* 50.0 .def_486)))
(let ((.def_503 (+ .def_487 .def_502)))
(let ((.def_504 (+ .def_498 .def_503)))
(let ((.def_505 (+ .def_496 .def_504)))
(let ((.def_506 (+ .def_500 .def_505)))
(let ((.def_507 (<= 0.0 .def_506)))
(let ((.def_484 (<= 0.0 .def_483)))
(let ((.def_508 (and .def_484 .def_507)))
(let ((.def_551 (and .def_508 .def_550)))
(let ((.def_594 (or .def_551 .def_593)))
(let ((.def_466 (* b.delta__AT1 .def_465)))
(let ((.def_467 (* 200.0 .def_466)))
(let ((.def_462 (* .def_449 .def_461)))
(let ((.def_463 (* 200.0 .def_462)))
(let ((.def_473 (+ .def_463 .def_467)))
(let ((.def_458 (* .def_329 .def_449)))
(let ((.def_459 (* 100.0 .def_458)))
(let ((.def_474 (+ .def_459 .def_473)))
(let ((.def_455 (* .def_450 .def_454)))
(let ((.def_456 (* 200.0 .def_455)))
(let ((.def_475 (+ .def_456 .def_474)))
(let ((.def_451 (* b.delta__AT1 .def_450)))
(let ((.def_452 (* 2401.0 .def_451)))
(let ((.def_476 (+ .def_452 .def_475)))
(let ((.def_447 (* b.speed_x__AT1 b.delta__AT1)))
(let ((.def_448 (* 100.0 .def_447)))
(let ((.def_477 (+ .def_448 .def_476)))
(let ((.def_435 (* b.y__AT1 b.y__AT1)))
(let ((.def_469 (* 100.0 .def_435)))
(let ((.def_478 (+ .def_469 .def_477)))
(let ((.def_471 (* 100.0 b.x__AT1)))
(let ((.def_479 (+ .def_471 .def_478)))
(let ((.def_480 (<= 0.0 .def_479)))
(let ((.def_436 (+ b.x__AT1 .def_435)))
(let ((.def_437 (<= 0.0 .def_436)))
(let ((.def_481 (and .def_437 .def_480)))
(let ((.def_595 (and .def_481 .def_594)))
(let ((.def_67 (<= b.speed_loss__AT0 (/ 1 2))))
(let ((.def_64 (<= (/ 1 10) b.speed_loss__AT0)))
(let ((.def_68 (and .def_64 .def_67)))
(let ((.def_596 (and .def_68 .def_595)))
(let ((.def_37 (not b.counter.0__AT0)))
(let ((.def_441 (or b.counter.1__AT0 .def_37)))
(let ((.def_40 (not b.counter.2__AT0)))
(let ((.def_442 (or .def_40 .def_441)))
(let ((.def_443 (or b.counter.3__AT0 .def_442)))
(let ((.def_438 (and .def_68 .def_437)))
(let ((.def_432 (not b.EVENT.0__AT1)))
(let ((.def_430 (not b.EVENT.1__AT1)))
(let ((.def_433 (or .def_430 .def_432)))
(let ((.def_335 (not b.counter.1__AT1)))
(let ((.def_4 (not b.counter.0__AT1)))
(let ((.def_423 (or .def_4 .def_335)))
(let ((.def_427 (or b.counter.3__AT1 .def_423)))
(let ((.def_424 (or b.counter.2__AT1 .def_423)))
(let ((.def_8 (not b.counter.2__AT1)))
(let ((.def_422 (or .def_4 .def_8)))
(let ((.def_425 (and .def_422 .def_424)))
(let ((.def_352 (not b.counter.3__AT1)))
(let ((.def_426 (or .def_352 .def_425)))
(let ((.def_428 (and .def_426 .def_427)))
(let ((.def_434 (and .def_428 .def_433)))
(let ((.def_439 (and .def_434 .def_438)))
(let ((.def_417 (<= 0.0 b.delta__AT0)))
(let ((.def_56 (not b.EVENT.0__AT0)))
(let ((.def_54 (not b.EVENT.1__AT0)))
(let ((.def_253 (and .def_54 .def_56)))
(let ((.def_255 (not .def_253)))
(let ((.def_418 (or .def_255 .def_417)))
(let ((.def_419 (or b.EVENT.1__AT0 .def_418)))
(let ((.def_294 (= b.bool_atom__AT0 b.bool_atom__AT1)))
(let ((.def_289 (= b.counter.0__AT1 b.counter.0__AT0)))
(let ((.def_287 (= b.counter.1__AT1 b.counter.1__AT0)))
(let ((.def_285 (= b.counter.2__AT1 b.counter.2__AT0)))
(let ((.def_284 (= b.counter.3__AT1 b.counter.3__AT0)))
(let ((.def_286 (and .def_284 .def_285)))
(let ((.def_288 (and .def_286 .def_287)))
(let ((.def_290 (and .def_288 .def_289)))
(let ((.def_413 (and .def_290 .def_294)))
(let ((.def_414 (or .def_255 .def_413)))
(let ((.def_415 (or b.EVENT.1__AT0 .def_414)))
(let ((.def_395 (* b.speed_y__AT0 b.delta__AT0)))
(let ((.def_396 (* 10.0 .def_395)))
(let ((.def_400 (* (- 10.0) b.y__AT1)))
(let ((.def_404 (+ .def_400 .def_396)))
(let ((.def_77 (* b.delta__AT0 b.delta__AT0)))
(let ((.def_397 (* (- 49.0) .def_77)))
(let ((.def_405 (+ .def_397 .def_404)))
(let ((.def_402 (* 10.0 b.y__AT0)))
(let ((.def_406 (+ .def_402 .def_405)))
(let ((.def_407 (= .def_406 0.0 )))
(let ((.def_390 (* (- 5.0) b.speed_y__AT1)))
(let ((.def_173 (* (- 49.0) b.delta__AT0)))
(let ((.def_391 (+ .def_173 .def_390)))
(let ((.def_174 (* 5.0 b.speed_y__AT0)))
(let ((.def_392 (+ .def_174 .def_391)))
(let ((.def_393 (= .def_392 0.0 )))
(let ((.def_386 (* (- 1.0) b.x__AT1)))
(let ((.def_74 (* b.speed_x__AT0 b.delta__AT0)))
(let ((.def_387 (+ .def_74 .def_386)))
(let ((.def_388 (+ b.x__AT0 .def_387)))
(let ((.def_389 (= .def_388 0.0 )))
(let ((.def_394 (and .def_389 .def_393)))
(let ((.def_408 (and .def_394 .def_407)))
(let ((.def_279 (= b.speed_x__AT0 b.speed_x__AT1)))
(let ((.def_409 (and .def_279 .def_408)))
(let ((.def_410 (or .def_255 .def_409)))
(let ((.def_276 (= b.y__AT0 b.y__AT1)))
(let ((.def_273 (= b.x__AT0 b.x__AT1)))
(let ((.def_380 (and .def_273 .def_276)))
(let ((.def_381 (and .def_279 .def_380)))
(let ((.def_282 (= b.speed_y__AT0 b.speed_y__AT1)))
(let ((.def_382 (and .def_282 .def_381)))
(let ((.def_377 (= b.delta__AT0 0.0 )))
(let ((.def_378 (and .def_253 .def_377)))
(let ((.def_379 (not .def_378)))
(let ((.def_383 (or .def_379 .def_382)))
(let ((.def_384 (or b.EVENT.1__AT0 .def_383)))
(let ((.def_369 (and .def_279 .def_282)))
(let ((.def_370 (and .def_290 .def_369)))
(let ((.def_371 (or b.bool_atom__AT0 .def_370)))
(let ((.def_344 (or .def_4 b.counter.0__AT0)))
(let ((.def_343 (or b.counter.0__AT1 .def_37)))
(let ((.def_345 (and .def_343 .def_344)))
(let ((.def_346 (and .def_335 .def_345)))
(let ((.def_347 (or b.counter.1__AT0 .def_346)))
(let ((.def_35 (not b.counter.1__AT0)))
(let ((.def_342 (or b.counter.1__AT1 .def_35)))
(let ((.def_348 (and .def_342 .def_347)))
(let ((.def_360 (and .def_8 .def_348)))
(let ((.def_361 (or b.counter.2__AT0 .def_360)))
(let ((.def_355 (and .def_37 .def_335)))
(let ((.def_356 (or b.counter.1__AT0 .def_355)))
(let ((.def_357 (and .def_342 .def_356)))
(let ((.def_358 (and b.counter.2__AT1 .def_357)))
(let ((.def_359 (or .def_40 .def_358)))
(let ((.def_362 (and .def_359 .def_361)))
(let ((.def_363 (and b.counter.3__AT1 .def_362)))
(let ((.def_364 (or b.counter.3__AT0 .def_363)))
(let ((.def_349 (and b.counter.2__AT1 .def_348)))
(let ((.def_350 (or b.counter.2__AT0 .def_349)))
(let ((.def_338 (or b.counter.1__AT1 b.counter.1__AT0)))
(let ((.def_336 (and b.counter.0__AT1 .def_335)))
(let ((.def_337 (or .def_35 .def_336)))
(let ((.def_339 (and .def_337 .def_338)))
(let ((.def_340 (and .def_8 .def_339)))
(let ((.def_341 (or .def_40 .def_340)))
(let ((.def_351 (and .def_341 .def_350)))
(let ((.def_353 (and .def_351 .def_352)))
(let ((.def_43 (not b.counter.3__AT0)))
(let ((.def_354 (or .def_43 .def_353)))
(let ((.def_365 (and .def_354 .def_364)))
(let ((.def_324 (* b.speed_x__AT0 b.speed_x__AT0)))
(let ((.def_91 (* b.speed_y__AT0 b.speed_y__AT0)))
(let ((.def_325 (+ .def_91 .def_324)))
(let ((.def_310 (* (- 1.0) b.speed_loss__AT0)))
(let ((.def_311 (+ 1.0 .def_310)))
(let ((.def_323 (* .def_311 .def_311)))
(let ((.def_326 (* .def_323 .def_325)))
(let ((.def_327 (* (- 1.0) .def_326)))
(let ((.def_331 (+ .def_327 .def_329)))
(let ((.def_322 (* b.speed_x__AT1 b.speed_x__AT1)))
(let ((.def_332 (+ .def_322 .def_331)))
(let ((.def_333 (= .def_332 0.0 )))
(let ((.def_300 (* 2.0 b.y__AT0)))
(let ((.def_314 (* .def_300 .def_311)))
(let ((.def_315 (* b.speed_y__AT0 .def_314)))
(let ((.def_312 (* b.speed_x__AT0 .def_311)))
(let ((.def_318 (+ .def_312 .def_315)))
(let ((.def_308 (* 2.0 b.y__AT1)))
(let ((.def_309 (* b.speed_y__AT1 .def_308)))
(let ((.def_319 (+ .def_309 .def_318)))
(let ((.def_320 (+ b.speed_x__AT1 .def_319)))
(let ((.def_321 (= .def_320 0.0 )))
(let ((.def_334 (and .def_321 .def_333)))
(let ((.def_366 (and .def_334 .def_365)))
(let ((.def_307 (not b.bool_atom__AT0)))
(let ((.def_367 (or .def_307 .def_366)))
(let ((.def_301 (* b.speed_y__AT0 .def_300)))
(let ((.def_302 (+ b.speed_x__AT0 .def_301)))
(let ((.def_303 (<= 0.0 .def_302)))
(let ((.def_304 (not .def_303)))
(let ((.def_59 (* b.y__AT0 b.y__AT0)))
(let ((.def_60 (+ b.x__AT0 .def_59)))
(let ((.def_299 (= .def_60 0.0 )))
(let ((.def_305 (and .def_299 .def_304)))
(let ((.def_306 (= b.bool_atom__AT0 .def_305)))
(let ((.def_368 (and .def_306 .def_367)))
(let ((.def_372 (and .def_368 .def_371)))
(let ((.def_373 (and .def_273 .def_372)))
(let ((.def_374 (and .def_276 .def_373)))
(let ((.def_375 (or .def_253 .def_374)))
(let ((.def_376 (or b.EVENT.1__AT0 .def_375)))
(let ((.def_385 (and .def_376 .def_384)))
(let ((.def_411 (and .def_385 .def_410)))
(let ((.def_260 (= b.time__AT0 b.time__AT1)))
(let ((.def_274 (and .def_260 .def_273)))
(let ((.def_277 (and .def_274 .def_276)))
(let ((.def_280 (and .def_277 .def_279)))
(let ((.def_283 (and .def_280 .def_282)))
(let ((.def_291 (and .def_283 .def_290)))
(let ((.def_295 (and .def_291 .def_294)))
(let ((.def_296 (or .def_54 .def_295)))
(let ((.def_263 (* (- 1.0) b.time__AT1)))
(let ((.def_266 (+ b.delta__AT0 .def_263)))
(let ((.def_267 (+ b.time__AT0 .def_266)))
(let ((.def_268 (= .def_267 0.0 )))
(let ((.def_269 (or .def_255 .def_268)))
(let ((.def_270 (or b.EVENT.1__AT0 .def_269)))
(let ((.def_261 (or .def_253 .def_260)))
(let ((.def_262 (or b.EVENT.1__AT0 .def_261)))
(let ((.def_271 (and .def_262 .def_270)))
(let ((.def_297 (and .def_271 .def_296)))
(let ((.def_257 (= .def_255 b.event_is_timed__AT1)))
(let ((.def_254 (= b.event_is_timed__AT0 .def_253)))
(let ((.def_258 (and .def_254 .def_257)))
(let ((.def_298 (and .def_258 .def_297)))
(let ((.def_412 (and .def_298 .def_411)))
(let ((.def_416 (and .def_412 .def_415)))
(let ((.def_420 (and .def_416 .def_419)))
(let ((.def_421 (and .def_54 .def_420)))
(let ((.def_440 (and .def_421 .def_439)))
(let ((.def_444 (and .def_440 .def_443)))
(let ((.def_86 (* (- (/ 49 10)) b.speed_y__AT0)))
(let ((.def_120 (* 3.0 .def_86)))
(let ((.def_201 (* (- 1.0) .def_120)))
(let ((.def_223 (* 2.0 .def_201)))
(let ((.def_235 (* (- 1.0) .def_223)))
(let ((.def_236 (* b.delta__AT0 .def_235)))
(let ((.def_237 (* (- 50.0) .def_236)))
(let ((.def_154 (* (- 50.0) .def_91)))
(let ((.def_241 (+ .def_154 .def_237)))
(let ((.def_152 (* (- 7203.0) .def_77)))
(let ((.def_242 (+ .def_152 .def_241)))
(let ((.def_157 (* 490.0 b.y__AT0)))
(let ((.def_243 (+ .def_157 .def_242)))
(let ((.def_244 (<= .def_243 0.0 )))
(let ((.def_165 (* (- 5.0) .def_91)))
(let ((.def_166 (* 49.0 b.y__AT0)))
(let ((.def_168 (+ .def_166 .def_165)))
(let ((.def_169 (<= .def_168 0.0 )))
(let ((.def_245 (and .def_169 .def_244)))
(let ((.def_176 (+ .def_174 .def_173)))
(let ((.def_180 (<= 0.0 .def_176)))
(let ((.def_179 (<= 0.0 b.speed_y__AT0)))
(let ((.def_181 (and .def_179 .def_180)))
(let ((.def_177 (<= .def_176 0.0 )))
(let ((.def_171 (<= b.speed_y__AT0 0.0 )))
(let ((.def_178 (and .def_171 .def_177)))
(let ((.def_182 (or .def_178 .def_181)))
(let ((.def_246 (and .def_182 .def_245)))
(let ((.def_224 (* b.delta__AT0 .def_223)))
(let ((.def_225 (* 50.0 .def_224)))
(let ((.def_229 (+ .def_154 .def_225)))
(let ((.def_230 (+ .def_152 .def_229)))
(let ((.def_231 (+ .def_157 .def_230)))
(let ((.def_232 (<= 0.0 .def_231)))
(let ((.def_195 (<= 0.0 .def_168)))
(let ((.def_233 (and .def_195 .def_232)))
(let ((.def_234 (and .def_182 .def_233)))
(let ((.def_247 (or .def_234 .def_246)))
(let ((.def_95 (* (- (/ 49 10)) b.y__AT0)))
(let ((.def_129 (* 2.0 .def_95)))
(let ((.def_210 (* (- 1.0) .def_129)))
(let ((.def_211 (* b.delta__AT0 .def_210)))
(let ((.def_212 (* (- 50.0) .def_211)))
(let ((.def_124 (* 2.0 .def_91)))
(let ((.def_205 (* (- 1.0) .def_124)))
(let ((.def_206 (* b.delta__AT0 .def_205)))
(let ((.def_208 (* (- 25.0) .def_206)))
(let ((.def_216 (+ .def_208 .def_212)))
(let ((.def_202 (* .def_77 .def_201)))
(let ((.def_203 (* (- 50.0) .def_202)))
(let ((.def_217 (+ .def_203 .def_216)))
(let ((.def_99 (* b.y__AT0 b.speed_y__AT0)))
(let ((.def_135 (* 50.0 .def_99)))
(let ((.def_218 (+ .def_135 .def_217)))
(let ((.def_78 (* b.delta__AT0 .def_77)))
(let ((.def_133 (* 2401.0 .def_78)))
(let ((.def_219 (+ .def_133 .def_218)))
(let ((.def_137 (* 25.0 b.speed_x__AT0)))
(let ((.def_220 (+ .def_137 .def_219)))
(let ((.def_221 (<= .def_220 0.0 )))
(let ((.def_116 (* 2.0 .def_99)))
(let ((.def_117 (+ b.speed_x__AT0 .def_116)))
(let ((.def_200 (<= .def_117 0.0 )))
(let ((.def_222 (and .def_200 .def_221)))
(let ((.def_248 (and .def_222 .def_247)))
(let ((.def_146 (* 2.0 .def_120)))
(let ((.def_185 (* (- 1.0) .def_146)))
(let ((.def_186 (* b.delta__AT0 .def_185)))
(let ((.def_187 (* 50.0 .def_186)))
(let ((.def_191 (+ .def_154 .def_187)))
(let ((.def_192 (+ .def_152 .def_191)))
(let ((.def_193 (+ .def_157 .def_192)))
(let ((.def_194 (<= 0.0 .def_193)))
(let ((.def_196 (and .def_194 .def_195)))
(let ((.def_197 (and .def_182 .def_196)))
(let ((.def_147 (* b.delta__AT0 .def_146)))
(let ((.def_149 (* (- 50.0) .def_147)))
(let ((.def_159 (+ .def_154 .def_149)))
(let ((.def_160 (+ .def_152 .def_159)))
(let ((.def_161 (+ .def_157 .def_160)))
(let ((.def_162 (<= .def_161 0.0 )))
(let ((.def_170 (and .def_162 .def_169)))
(let ((.def_183 (and .def_170 .def_182)))
(let ((.def_198 (or .def_183 .def_197)))
(let ((.def_130 (* b.delta__AT0 .def_129)))
(let ((.def_131 (* 50.0 .def_130)))
(let ((.def_125 (* b.delta__AT0 .def_124)))
(let ((.def_127 (* 25.0 .def_125)))
(let ((.def_139 (+ .def_127 .def_131)))
(let ((.def_121 (* .def_77 .def_120)))
(let ((.def_123 (* 50.0 .def_121)))
(let ((.def_140 (+ .def_123 .def_139)))
(let ((.def_141 (+ .def_135 .def_140)))
(let ((.def_142 (+ .def_133 .def_141)))
(let ((.def_143 (+ .def_137 .def_142)))
(let ((.def_144 (<= 0.0 .def_143)))
(let ((.def_118 (<= 0.0 .def_117)))
(let ((.def_145 (and .def_118 .def_144)))
(let ((.def_199 (and .def_145 .def_198)))
(let ((.def_249 (or .def_199 .def_248)))
(let ((.def_100 (* b.delta__AT0 .def_99)))
(let ((.def_101 (* 200.0 .def_100)))
(let ((.def_96 (* .def_77 .def_95)))
(let ((.def_97 (* 200.0 .def_96)))
(let ((.def_107 (+ .def_97 .def_101)))
(let ((.def_92 (* .def_77 .def_91)))
(let ((.def_93 (* 100.0 .def_92)))
(let ((.def_108 (+ .def_93 .def_107)))
(let ((.def_87 (* .def_78 .def_86)))
(let ((.def_89 (* 200.0 .def_87)))
(let ((.def_109 (+ .def_89 .def_108)))
(let ((.def_79 (* b.delta__AT0 .def_78)))
(let ((.def_81 (* 2401.0 .def_79)))
(let ((.def_110 (+ .def_81 .def_109)))
(let ((.def_76 (* 100.0 .def_74)))
(let ((.def_111 (+ .def_76 .def_110)))
(let ((.def_103 (* 100.0 .def_59)))
(let ((.def_112 (+ .def_103 .def_111)))
(let ((.def_105 (* 100.0 b.x__AT0)))
(let ((.def_113 (+ .def_105 .def_112)))
(let ((.def_114 (<= 0.0 .def_113)))
(let ((.def_61 (<= 0.0 .def_60)))
(let ((.def_115 (and .def_61 .def_114)))
(let ((.def_250 (and .def_115 .def_249)))
(let ((.def_251 (and .def_68 .def_250)))
(let ((.def_69 (and .def_61 .def_68)))
(let ((.def_57 (or .def_54 .def_56)))
(let ((.def_47 (or .def_35 .def_37)))
(let ((.def_51 (or b.counter.3__AT0 .def_47)))
(let ((.def_48 (or b.counter.2__AT0 .def_47)))
(let ((.def_46 (or .def_37 .def_40)))
(let ((.def_49 (and .def_46 .def_48)))
(let ((.def_50 (or .def_43 .def_49)))
(let ((.def_52 (and .def_50 .def_51)))
(let ((.def_58 (and .def_52 .def_57)))
(let ((.def_70 (and .def_58 .def_69)))
(let ((.def_38 (and .def_35 .def_37)))
(let ((.def_41 (and .def_38 .def_40)))
(let ((.def_44 (and .def_41 .def_43)))
(let ((.def_32 (= b.speed_y__AT0 1.0 )))
(let ((.def_29 (= b.speed_x__AT0 1.0 )))
(let ((.def_25 (= b.y__AT0 10.0 )))
(let ((.def_21 (= b.x__AT0 (- 9.0) )))
(let ((.def_15 (= b.time__AT0 0.0 )))
(let ((.def_17 (and .def_15 b.event_is_timed__AT0)))
(let ((.def_22 (and .def_17 .def_21)))
(let ((.def_26 (and .def_22 .def_25)))
(let ((.def_30 (and .def_26 .def_29)))
(let ((.def_33 (and .def_30 .def_32)))
(let ((.def_45 (and .def_33 .def_44)))
(let ((.def_71 (and .def_45 .def_70)))
(let ((.def_6 (or .def_4 b.counter.1__AT1)))
(let ((.def_9 (or .def_6 .def_8)))
(let ((.def_11 (or .def_9 b.counter.3__AT1)))
(let ((.def_12 (not .def_11)))
(let ((.def_72 (and .def_12 .def_71)))
(let ((.def_252 (and .def_72 .def_251)))
(let ((.def_445 (and .def_252 .def_444)))
(let ((.def_597 (and .def_445 .def_596)))
.def_597)))))))))))))))))))))))))))))))))))))))))))))))))))))))))))))))))))))))))))))))))))))))))))))))))))))))))))))))))))))))))))))))))))))))))))))))))))))))))))))))))))))))))))))))))))))))))))))))))))))))))))))))))))))))))))))))))))))))))))))))))))))))))))))))))))))))))))))))))))))))))))))))))))))))))))))))))))))))))))))))))))))))))))))))))))))))))))))))))))))))))))))))))))))))))))))))))))))))))))))))))))))))))))))))))))))))))))))))))))))))))))))))))))))))))))))))))))))))))))))
(check-sat)
(exit)
